submitit INFO (2023-05-02 18:49:37,147) - Starting with JobEnvironment(job_id=27732, hostname=cpunode2, local_rank=2(5), node=0(1), global_rank=2(5))
submitit INFO (2023-05-02 18:49:37,147) - Loading pickle: /h/30/pashootan/Matrix-Mult-CP/src/../logs/4/1x3x3_9_May02_18:49:34/27732_submitted.pkl
 ! --------------------------------------------------- CP Optimizer 22.1.1.0 --
 ! Satisfiability problem - 135 variables, 81 constraints
 ! TimeLimit            = 7200
 ! Workers              = 8
 ! LogPeriod            = 10000000
 ! RandomSeed           = 1565
 ! Initial process time : 0.02s (0.02s extraction + 0.00s propagation)
 !  . Log search space  : 214.0 (before), 214.0 (after)
 !  . Memory usage      : 626.8 kB (before), 626.8 kB (after)
 ! Using parallel search with 8 workers.
 ! ----------------------------------------------------------------------------
 !               Branches  Non-fixed    W       Branch decision
 *                  34648  0.34s        5         1  = W4_0
 ! ----------------------------------------------------------------------------
 ! Search completed, 1 solution found.
 ! ----------------------------------------------------------------------------
 ! Number of branches     : 285642
 ! Number of fails        : 124868
 ! Total memory usage     : 11.6 MB (11.5 MB CP Optimizer + 0.1 MB Concert)
 ! Time spent in solve    : 0.34s (0.33s engine + 0.02s extraction)
 ! Search speed (br. / s) : 865581.8
 ! ----------------------------------------------------------------------------
Feasible
Model is valid
Saving solution to: /h/30/pashootan/Matrix-Mult-CP/logs/4/1x3x3_9_May02_18:49:34/27732_2_solution.txt
Saving stats to: /h/30/pashootan/Matrix-Mult-CP/logs/4/1x3x3_9_May02_18:49:34/27732_2_stats.csv
submitit INFO (2023-05-02 18:49:37,882) - Job completed successfully
